db/data/151402074510504198434299100362797322329.z3.out
-------------------
2500.123164782
